
Gurobi 11.0.0 (linux64) logging started Fri Jan  3 21:46:31 2025

Set parameter LogFile to value "gurobi.log"
Set parameter InfUnbdInfo to value 1
Gurobi Optimizer version 11.0.0 build v11.0.0rc2 (linux64 - "Ubuntu 22.04.4 LTS")

CPU model: AMD EPYC 7V13 64-Core Processor, instruction set [SSE2|AVX|AVX2]
Thread count: 128 physical cores, 128 logical processors, using up to 32 threads

Optimize a model with 72 rows, 225 columns and 194 nonzeros
Model fingerprint: 0xf00b292a
Model has 117 quadratic constraints
Model has 24 general constraints
Variable types: 46 continuous, 179 integer (0 binary)
Coefficient statistics:
  Matrix range     [1e+00, 2e+01]
  QMatrix range    [1e+00, 4e+02]
  QLMatrix range   [1e+00, 1e+00]
  Objective range  [1e+00, 1e+00]
  Bounds range     [1e+00, 1e+06]
  RHS range        [1e+00, 4e+00]
  QRHS range       [5e+02, 5e+05]
  GenCon rhs range [1e+00, 1e+00]
  GenCon coe range [1e+00, 1e+00]
Using branch priorities (all 0).
Presolve added 42 rows and 79 columns
Presolve time: 0.01s
Presolved: 613 rows, 569 columns, 2699 nonzeros
Presolved model has 144 SOS constraint(s)
Presolved model has 40 bilinear constraint(s)
Warning: Model contains variables with very large bounds participating
         in product terms.
         Presolve was not able to compute smaller bounds for these variables.
         Consider bounding these variables or reformulating the model.


Solving non-convex MIQCP

Variable types: 143 continuous, 426 integer (123 binary)

Root relaxation: objective 7.661024e+01, 183 iterations, 0.00 seconds (0.00 work units)

    Nodes    |    Current Node    |     Objective Bounds      |     Work
 Expl Unexpl |  Obj  Depth IntInf | Incumbent    BestBd   Gap | It/Node Time

     0     0   76.61024    0   91          -   76.61024      -     -    0s
     0     0   76.61024    0   81          -   76.61024      -     -    0s
H    0     0                    245692.56250   76.61024   100%     -    0s
     0     0  131.07301    0  108 245692.563  131.07301   100%     -    0s
     0     0  157.45278    0  138 245692.563  157.45278   100%     -    0s
     0     0  157.45278    0  134 245692.563  157.45278   100%     -    0s
H    0     0                    126622.97449  157.51083   100%     -    0s
     0     0  157.51083    0  120 126622.974  157.51083   100%     -    0s
     0     0  183.76348    0  175 126622.974  183.76348   100%     -    0s
     0     0  183.76348    0   42 126622.974  183.76348   100%     -    0s
     0     0  209.72234    0   73 126622.974  209.72234   100%     -    0s
     0     0  209.81133    0   73 126622.974  209.81133   100%     -    0s
     0     0  235.69862    0   81 126622.974  235.69862   100%     -    1s
     0     0  235.70195    0   97 126622.974  235.70195   100%     -    1s
     0     0  261.47971    0   81 126622.974  261.47971   100%     -    1s
H    0     0                    123838.99122  261.52723   100%     -    1s
     0     0  261.52723    0   94 123838.991  261.52723   100%     -    1s
     0     0  287.42694    0  106 123838.991  287.42694   100%     -    1s
     0     0  287.58894    0   84 123838.991  287.58894   100%     -    1s
     0     0  313.80351    0   93 123838.991  313.80351   100%     -    1s
     0     0  313.91607    0  124 123838.991  313.91607   100%     -    1s
     0     0  341.82986    0  119 123838.991  341.82986   100%     -    1s
     0     0  342.82877    0  115 123838.991  342.82877   100%     -    1s
     0     0  369.96596    0  132 123838.991  369.96596   100%     -    1s
     0     0  369.97032    0  132 123838.991  369.97032   100%     -    1s
     0     0  396.35012    0  132 123838.991  396.35012   100%     -    1s
     0     0  396.84142    0  132 123838.991  396.84142   100%     -    1s
     0     0  422.29744    0  109 123838.991  422.29744   100%     -    2s
     0     0  471.96971    0  129 123838.991  471.96971   100%     -    2s
     0     0  487.46228    0  120 123838.991  487.46228   100%     -    2s
     0     0  487.54130    0  107 123838.991  487.54130   100%     -    2s
     0     0  852.49751    0  129 123838.991  852.49751  99.3%     -    2s
     0     0  852.49751    0   52 123838.991  852.49751  99.3%     -    2s
     0     0 1178.47723    0   92 123838.991 1178.47723  99.0%     -    2s
     0     0 1178.47723    0   85 123838.991 1178.47723  99.0%     -    2s
     0     0 1178.47723    0   86 123838.991 1178.47723  99.0%     -    2s
     0     0 1178.47723    0   86 123838.991 1178.47723  99.0%     -    2s
     0     0 1187.59415    0  109 123838.991 1187.59415  99.0%     -    2s
     0     0 1514.40452    0  114 123838.991 1514.40452  98.8%     -    2s
     0     0 1514.40452    0  111 123838.991 1514.40452  98.8%     -    2s
     0     0 1514.40452    0  111 123838.991 1514.40452  98.8%     -    3s
     0     0 1514.40452    0  109 123838.991 1514.40452  98.8%     -    3s
     0     0 1514.40452    0  108 123838.991 1514.40452  98.8%     -    3s
     0     0 1514.40452    0  107 123838.991 1514.40452  98.8%     -    3s
     0     0 1912.67603    0   85 123838.991 1912.67603  98.5%     -    3s
     0     2 1912.67603    0   67 123838.991 1912.67603  98.5%     -    3s
H   26    40                    86686.375000 1912.67603  97.8%  55.2    4s
H   37    40                    84311.258459 1912.67603  97.7%  52.9    4s
H   45    40                    41766.062500 1912.67603  95.4%  51.4    4s
H   48    68                    25219.812500 1912.67603  92.4%  49.4    4s
H   66    68                    22473.805707 1912.67603  91.5%  46.2    4s
*  521   352              16    14380.190000 1912.67603  86.7%  15.7    4s
*  522   352              16    14275.940000 1912.67603  86.6%  15.7    4s
*  827   297              14    14274.940000 1912.67603  86.6%  14.8    4s
   848   325 12004.6929   15   75 14274.9400 1912.67603  86.6%  14.6    5s
* 1190   393              22    13821.082753 1912.67603  86.2%  13.7    5s
* 1191   393              22    13794.832753 1912.67603  86.1%  13.7    5s
* 1350   448              38    13716.772746 1912.67603  86.1%  13.6    5s
* 1619   509              38    13703.522746 1912.67603  86.0%  12.8    5s
* 1776   509              29    13692.402541 1912.67603  86.0%  12.7    5s
* 1878   583              26    13547.031774 1912.67603  85.9%  12.6    5s
* 2000   583              30    13231.394432 1912.67603  85.5%  12.4    5s
* 2018   583              30    12631.424081 1912.67603  84.9%  12.3    5s
H 2673   478                    12531.350598 2153.09493  82.8%  11.6    6s
H 3043   478                    12334.058568 2510.40726  79.6%  10.9    6s
* 3422   118              31    12326.399913 2744.56092  77.7%  10.4    6s
* 3980     0              31    12298.977580 12296.7559  0.02%   9.3    6s

Cutting planes:
  Learned: 4
  Gomory: 15
  Cover: 7
  Implied bound: 90
  MIR: 89
  StrongCG: 10
  Flow cover: 7
  Inf proof: 1
  Zero half: 2
  RLT: 62
  Relax-and-lift: 28
  BQP: 1
  PSD: 2

Explored 3986 nodes (38389 simplex iterations) in 6.68 seconds (0.37 work units)
Thread count was 32 (of 128 available processors)

Solution count 10: 12299 12326.4 12334.1 ... 13716.8

Optimal solution found (tolerance 1.00e-04)
Warning: max constraint violation (3.0988e-03) exceeds tolerance
Warning: max general constraint violation (3.0988e-03) exceeds tolerance
  Piecewise linearization of function constraints often causes big violation.
  Try to adjust the settings of the related parameters, such as FuncPieces.
Best objective 1.229897758044e+04, best bound 1.229897758044e+04, gap 0.0000%
